networks/zoo_16_45/zoo_16_45.sol
<?xml version = "1.0" encoding="UTF-8" standalone="yes"?>
<CPLEXSolution version="1.2">
 <header
   problemName="networks/zoo_16_45/zoo_16_45.lp"
   solutionName="incumbent"
   solutionIndex="-1"
   objectiveValue="7"
   solutionTypeValue="3"
   solutionTypeString="primal"
   solutionStatusValue="101"
   solutionStatusString="integer optimal solution"
   solutionMethodString="mip"
   primalFeasible="1"
   dualFeasible="1"
   MIPNodes="0"
   MIPIterations="109"
   writeLevel="3"/>
 <quality
   epInt="1.0000000000000001e-05"
   epRHS="9.9999999999999995e-07"
   maxIntInfeas="0"
   maxPrimalInfeas="0"
   maxX="4"
   maxSlack="10"/>
 <variables>
  <variable name="Y(6,8)" index="82" value="1"/>
  <variable name="Y(7,1)" index="90" value="1"/>
  <variable name="Y(15,5)" index="214" value="1"/>
  <variable name="Y(26,3)" index="377" value="1"/>
  <variable name="Y(28,7)" index="411" value="1"/>
  <variable name="Y(39,4)" index="573" value="1"/>
  <variable name="Y(41,2)" index="601" value="1"/>
  <variable name="X(1,5,39)" index="713" value="1"/>
  <variable name="X(1,6,41)" index="760" value="1"/>
  <variable name="X(1,7,28)" index="792" value="1"/>
  <variable name="X(1,8,6)" index="815" value="1"/>
  <variable name="X(1,9,7)" index="861" value="1"/>
  <variable name="X(2,3,7)" index="906" value="1"/>
  <variable name="X(2,10,41)" index="985" value="1"/>
  <variable name="X(3,2,41)" index="1030" value="1"/>
  <variable name="X(3,4,15)" index="1049" value="1"/>
  <variable name="X(3,6,7)" index="1086" value="1"/>
  <variable name="X(3,11,26)" index="1150" value="1"/>
  <variable name="X(4,3,26)" index="1195" value="1"/>
  <variable name="X(4,5,15)" index="1229" value="1"/>
  <variable name="X(4,12,39)" index="1298" value="1"/>
  <variable name="X(5,1,28)" index="1332" value="1"/>
  <variable name="X(5,4,39)" index="1388" value="1"/>
  <variable name="X(5,13,15)" index="1409" value="1"/>
  <variable name="X(6,1,7)" index="1446" value="1"/>
  <variable name="X(6,3,41)" index="1525" value="1"/>
  <variable name="X(7,1,39)" index="1568" value="1"/>
  <variable name="X(7,15,28)" index="1602" value="1"/>
  <variable name="X(8,1,41)" index="1660" value="1"/>
  <variable name="X(8,16,6)" index="1670" value="1"/>
  <variable name="C(6,8)" index="1725" value="1"/>
  <variable name="C(7,3)" index="1727" value="1"/>
  <variable name="C(7,6)" index="1728" value="2"/>
  <variable name="C(7,1)" index="1729" value="3"/>
  <variable name="C(15,4)" index="1754" value="1"/>
  <variable name="C(15,5)" index="1755" value="2"/>
  <variable name="C(26,3)" index="1790" value="1"/>
  <variable name="C(28,1)" index="1794" value="1"/>
  <variable name="C(28,7)" index="1795" value="2"/>
  <variable name="C(39,1)" index="1828" value="1"/>
  <variable name="C(39,5)" index="1829" value="2"/>
  <variable name="C(39,4)" index="1830" value="3"/>
  <variable name="C(41,1)" index="1834" value="1"/>
  <variable name="C(41,6)" index="1835" value="2"/>
  <variable name="C(41,3)" index="1836" value="3"/>
  <variable name="C(41,2)" index="1837" value="4"/>
 </variables>
</CPLEXSolution>
